p tw 32 35
1 2
2 3
11 12
12 13
13 14
14 15
15 16
15 19
16 17
17 18
17 24
18 26
19 20
20 21
3 4
21 22
22 23
23 24
24 25
25 31
26 27
27 28
28 29
29 30
4 5
31 32
5 6
6 28
6 30
6 7
7 8
8 9
9 11
9 10
10 11
